data/solutions/recovery/degenerate/intermediate/binding/degenerate_intermediate_instance37/28.sol
Elapsed time: 0.05
Upper bound: 193359.0
Planning weighted value: 8512398476.0
C[0]=193359.0
C[1]=188429.0
C[2]=182139.0
C[3]=181191.0
C[4]=173445.0
C[5]=172071.0
C[6]=168380.0
C[7]=165157.0
C[8]=164599.0
C[9]=164004.0
C[10]=163847.0
C[11]=125252.0
C[12]=124469.0
C[13]=123666.0
C[14]=0.0
C[15]=0.0
y[0]=10
y[1]=6
y[2]=7
y[3]=1
y[4]=4
y[5]=7
y[6]=4
y[7]=4
y[8]=9
y[9]=7
y[10]=10
y[11]=6
y[12]=2
y[13]=0
y[14]=7
y[15]=8
y[16]=12
y[17]=11
y[18]=10
y[19]=5
y[20]=9
y[21]=5
y[22]=12
y[23]=13
y[24]=11
y[25]=5
y[26]=13
y[27]=12
y[28]=10
y[29]=6
y[30]=7
y[31]=1
y[32]=8
y[33]=4
y[34]=3
y[35]=3
y[36]=4
y[37]=8
y[38]=10
y[39]=11
y[40]=5
y[41]=10
y[42]=2
y[43]=8
y[44]=9
y[45]=8
y[46]=2
y[47]=0
y[48]=9
y[49]=13
y[50]=6
y[51]=1
y[52]=2
y[53]=3
y[54]=9
y[55]=3
y[56]=2
y[57]=0
y[58]=1
y[59]=2
y[60]=2
y[61]=8
y[62]=1
y[63]=5
y[64]=6
