data/solutions/recovery/degenerate/intermediate/binding/degenerate_intermediate_instance37/28.log

Log started (V12.6.3.0) Sun Apr 22 12:33:23 2018

New value for default parallel thread count: 1

Problem '/tmp/tmpDuTtU_.pyomo.lp' read.
Read time = 0.02 sec. (0.75 ticks)

Problem name         : /tmp/tmpDuTtU_.pyomo.lp
Objective sense      : Minimize
Variables            :    1058  [Nneg: 1,  Binary: 1040,  General Integer: 17]
Objective nonzeros   :       1
Linear constraints   :     165  [Less: 81,  Equal: 84]
  Nonzeros           :   53902
  RHS nonzeros       :      66

Variables            : Min LB: 0.000000         Max UB: 1.000000       
Objective nonzeros   : Min   : 1.000000         Max   : 1.000000       
Linear constraints   :
  Nonzeros           : Min   : 1.000000         Max   : 128311.0       
  RHS nonzeros       : Min   : 1.000000         Max   : 1.000000       
Tried aggregator 2 times.
MIP Presolve eliminated 125 rows and 875 columns.
Aggregator did 14 substitutions.
Reduced MIP has 26 rows, 169 columns, and 350 nonzeros.
Reduced MIP has 168 binaries, 1 generals, 0 SOSs, and 0 indicators.
Presolve time = 0.00 sec. (3.83 ticks)
Found incumbent of value 823599.000000 after 0.00 sec. (5.18 ticks)
Probing time = 0.00 sec. (0.21 ticks)
Tried aggregator 1 time.
Reduced MIP has 26 rows, 169 columns, and 350 nonzeros.
Reduced MIP has 168 binaries, 1 generals, 0 SOSs, and 0 indicators.
Presolve time = 0.00 sec. (0.28 ticks)
Probing time = 0.00 sec. (0.21 ticks)
Clique table members: 12.
MIP emphasis: balance optimality and feasibility.
MIP search method: dynamic search.
Parallel mode: none, using 1 thread.
Root relaxation solution time = 0.00 sec. (0.18 ticks)

        Nodes                                         Cuts/
   Node  Left     Objective  IInf  Best Integer    Best Bound    ItCnt     Gap

*     0+    0                       823599.0000   193359.0000            76.52%
      0     0   193359.0000    12   823599.0000   193359.0000       29   76.52%
*     0+    0                       253563.0000   193359.0000            23.74%
      0     0   193359.0000     4   253563.0000       Cuts: 6       34   23.74%
*     0+    0                       223454.0000   193359.0000            13.47%
      0     0   193359.0000     5   223454.0000      Cuts: 12       42   13.47%
*     0+    0                       221868.0000   193359.0000            12.85%
      0     0   193359.0000     2   221868.0000       Cuts: 7       46   12.85%
*     0+    0                       216000.0000   193359.0000            10.48%
      0     0   193359.0000     8   216000.0000       Cuts: 3       55   10.48%
*     0+    0                       212632.0000   193359.0000             9.06%
*     0+    0                       193359.0000   193359.0000             0.00%
      0     0        cutoff         193359.0000   193359.0000       55    0.00%
Elapsed time = 0.01 sec. (8.90 ticks, tree = 0.01 MB, solutions = 7)

Clique cuts applied:  2
Implied bound cuts applied:  3
Mixed integer rounding cuts applied:  9
Gomory fractional cuts applied:  7

Root node processing (before b&c):
  Real time             =    0.01 sec. (8.97 ticks)
Sequential b&c:
  Real time             =    0.00 sec. (0.00 ticks)
                          ------------
Total (root+branch&cut) =    0.01 sec. (8.97 ticks)

Solution pool: 7 solutions saved.

MIP - Integer optimal solution:  Objective =  1.9335900000e+05
Solution time =    0.01 sec.  Iterations = 55  Nodes = 0
Deterministic time = 8.98 ticks  (916.96 ticks/sec)


Incumbent solution written to file '/tmp/tmprCQ7dN.cplex.sol'.
